p cnf 44 157
1 2 3 4 0
5 6 7 8 0
9 10 11 12 0
13 14 15 16 0
17 18 19 20 0
21 22 23 24 0
25 26 27 28 0
29 30 31 32 0
33 34 35 36 0
37 38 39 40 0
41 42 43 44 0
-1 -2 0
-1 -3 0
-1 -4 0
-2 -3 0
-2 -4 0
-3 -4 0
-5 -6 0
-5 -7 0
-5 -8 0
-6 -7 0
-6 -8 0
-7 -8 0
-9 -10 0
-9 -11 0
-9 -12 0
-10 -11 0
-10 -12 0
-11 -12 0
-13 -14 0
-13 -15 0
-13 -16 0
-14 -15 0
-14 -16 0
-15 -16 0
-17 -18 0
-17 -19 0
-17 -20 0
-18 -19 0
-18 -20 0
-19 -20 0
-21 -22 0
-21 -23 0
-21 -24 0
-22 -23 0
-22 -24 0
-23 -24 0
-25 -26 0
-25 -27 0
-25 -28 0
-26 -27 0
-26 -28 0
-27 -28 0
-29 -30 0
-29 -31 0
-29 -32 0
-30 -31 0
-30 -32 0
-31 -32 0
-33 -34 0
-33 -35 0
-33 -36 0
-34 -35 0
-34 -36 0
-35 -36 0
-37 -38 0
-37 -39 0
-37 -40 0
-38 -39 0
-38 -40 0
-39 -40 0
-41 -42 0
-41 -43 0
-41 -44 0
-42 -43 0
-42 -44 0
-43 -44 0
-1 -5 0
-2 -6 0
-3 -7 0
-4 -8 0
-1 -13 0
-2 -14 0
-3 -15 0
-4 -16 0
-1 -25 0
-2 -26 0
-3 -27 0
-4 -28 0
-1 -33 0
-2 -34 0
-3 -35 0
-4 -36 0
-5 -9 0
-6 -10 0
-7 -11 0
-8 -12 0
-5 -21 0
-6 -22 0
-7 -23 0
-8 -24 0
-5 -29 0
-6 -30 0
-7 -31 0
-8 -32 0
-9 -17 0
-10 -18 0
-11 -19 0
-12 -20 0
-9 -25 0
-10 -26 0
-11 -27 0
-12 -28 0
-9 -37 0
-10 -38 0
-11 -39 0
-12 -40 0
-13 -17 0
-14 -18 0
-15 -19 0
-16 -20 0
-13 -21 0
-14 -22 0
-15 -23 0
-16 -24 0
-13 -37 0
-14 -38 0
-15 -39 0
-16 -40 0
-17 -29 0
-18 -30 0
-19 -31 0
-20 -32 0
-17 -33 0
-18 -34 0
-19 -35 0
-20 -36 0
-21 -41 0
-22 -42 0
-23 -43 0
-24 -44 0
-25 -41 0
-26 -42 0
-27 -43 0
-28 -44 0
-29 -41 0
-30 -42 0
-31 -43 0
-32 -44 0
-33 -41 0
-34 -42 0
-35 -43 0
-36 -44 0
-37 -41 0
-38 -42 0
-39 -43 0
-40 -44 0
